NAME          Slots selection
ROWS
 N  *OBJ*
 E  slot_7
 E  slot_6
 E  slot_5
 E  slot_4
 E  slot_3
 E  slot_2
 E  slot_1
 E  slot

COLUMNS
    WR_(0)    slot      1
    WR_(0)    *OBJ*     1.00003e+006
    WR_(1)    slot_1    1
    WR_(1)    *OBJ*     1.00006e+006
    WR_(2)    slot_2    1
    WR_(2)    *OBJ*     1.00005e+006
    WR_(3)    slot_3    1
    WR_(3)    *OBJ*     1.00003e+006
    WR_(4)    slot_4    1
    WR_(4)    *OBJ*     1.00003e+006
    WR_(5)    slot_5    1
    WR_(5)    *OBJ*     1.00009e+006
    WR_(6)    slot_6    1
    WR_(6)    *OBJ*     1.00005e+006
    WR_(7)    slot_7    1
    WR_(7)    *OBJ*     1.00003e+006
    WR_(8)    slot      1
    WR_(8)    *OBJ*     1.00003e+006
    WR_(9)    slot_1    1
    WR_(9)    slot_3    1
    WR_(9)    *OBJ*     91
    WR_(10)   slot_2    1
    WR_(10)   slot_4    1
    WR_(10)   *OBJ*     85
    WR_(11)   slot_1    1
    WR_(11)   slot_3    1
    WR_(11)   *OBJ*     91
    WR_(12)   slot_2    1
    WR_(12)   slot_4    1
    WR_(12)   *OBJ*     85
    WR_(13)   slot_5    1
    WR_(13)   *OBJ*     1.00009e+006
    WR_(14)   slot_6    1
    WR_(14)   *OBJ*     1.00005e+006
    WR_(15)   slot_7    1
    WR_(15)   *OBJ*     1.00003e+006
    WR_(16)   slot      1
    WR_(16)   *OBJ*     1.00003e+006
    WR_(17)   slot_1    1
    WR_(17)   slot_3    1
    WR_(17)   *OBJ*     91
    WR_(18)   slot_2    1
    WR_(18)   slot_4    1
    WR_(18)   *OBJ*     85
    WR_(19)   slot_1    1
    WR_(19)   slot_3    1
    WR_(19)   *OBJ*     91
    WR_(20)   slot_2    1
    WR_(20)   slot_4    1
    WR_(20)   *OBJ*     85
    WR_(21)   slot_5    1
    WR_(21)   *OBJ*     1.00009e+006
    WR_(22)   slot_6    1
    WR_(22)   *OBJ*     1.00005e+006
    WR_(23)   slot_7    1
    WR_(23)   *OBJ*     1.00003e+006
    WR_(24)   slot      1
    WR_(24)   *OBJ*     1.00003e+006
    WR_(25)   slot_1    1
    WR_(25)   *OBJ*     1.00006e+006
    WR_(26)   slot_2    1
    WR_(26)   *OBJ*     1.00005e+006
    WR_(27)   slot_3    1
    WR_(27)   *OBJ*     1.00003e+006
    WR_(28)   slot_4    1
    WR_(28)   *OBJ*     1.00003e+006
    WR_(29)   slot_5    1
    WR_(29)   *OBJ*     1.00009e+006
    WR_(30)   slot_6    1
    WR_(30)   *OBJ*     1.00005e+006
    WR_(31)   slot_7    1
    WR_(31)   *OBJ*     1.00003e+006

RHS
    *RHS*     slot_7    1
    *RHS*     slot_6    1
    *RHS*     slot_5    1
    *RHS*     slot_4    1
    *RHS*     slot_3    1
    *RHS*     slot_2    1
    *RHS*     slot_1    1
    *RHS*     slot      1

BOUNDS
 BV *BND*     WR_(0)
 BV *BND*     WR_(1)
 BV *BND*     WR_(2)
 BV *BND*     WR_(3)
 BV *BND*     WR_(4)
 BV *BND*     WR_(5)
 BV *BND*     WR_(6)
 BV *BND*     WR_(7)
 BV *BND*     WR_(8)
 BV *BND*     WR_(9)
 BV *BND*     WR_(10)
 BV *BND*     WR_(11)
 BV *BND*     WR_(12)
 BV *BND*     WR_(13)
 BV *BND*     WR_(14)
 BV *BND*     WR_(15)
 BV *BND*     WR_(16)
 BV *BND*     WR_(17)
 BV *BND*     WR_(18)
 BV *BND*     WR_(19)
 BV *BND*     WR_(20)
 BV *BND*     WR_(21)
 BV *BND*     WR_(22)
 BV *BND*     WR_(23)
 BV *BND*     WR_(24)
 BV *BND*     WR_(25)
 BV *BND*     WR_(26)
 BV *BND*     WR_(27)
 BV *BND*     WR_(28)
 BV *BND*     WR_(29)
 BV *BND*     WR_(30)
 BV *BND*     WR_(31)

ENDATA
